20 57
6 12
6 15
3 4
12 16
4 6
12 19
14 16
3 16
5 7
5 16
4 18
5 19
9 17
1 3
2 8
1 12
1 18
15 17
7 13
7 19
3 9
4 8
12 15
14 18
5 15
1 2
2 7
1 5
8 17
11 13
11 19
2 16
13 16
7 9
6 7
15 16
7 18
4 7
3 11
3 8
12 17
3 14
4 19
3 17
5 14
8 16
1 4
7 11
8 13
10 16
2 18
1 16
1 10
13 15
1 19
15 18
7 8
